27 6
10 10 12 11 11 12
1 0 0 0 0 0 0 3 2 3 4
1 0 0 10 6 3 2 2 6 8
3 6 0 1 0 2 7 4 5 6 7 8
11 0 0 0 0 0 0 3 6 7 8
8 0 0 0 8 0 3 2 10 11
4 0 5 1 3 0 8 1 10
10 3 7 0 0 6 1 2 10 12
6 0 0 0 0 0 0 1 9
7 0 0 7 6 0 0 2 15 16
4 0 9 0 7 0 0 2 13 14
4 0 0 0 0 6 0 2 15 16
4 0 3 7 7 3 0 1 14
7 0 0 4 0 7 0 3 17 18 19
9 5 0 0 0 0 0 2 18 20
11 0 0 0 0 0 2 3 17 18 20
6 4 4 0 0 3 1 3 17 18 19
4 0 0 8 4 0 0 3 21 22 23
10 0 10 0 0 9 0 2 23 24
3 3 1 7 0 0 0 2 21 24
8 0 0 0 0 0 2 3 21 22 23
6 4 2 5 7 0 0 2 25 26
4 7 0 0 4 0 5 2 25 26
6 1 6 8 0 0 10 2 25 26
10 8 0 0 0 0 7 2 25 26
6 0 0 0 0 5 5 1 27
10 7 0 0 0 10 6 1 27
0 0 0 0 0 0 0 0
